69
2 115 95 
2 68 56 
1 77 
2 70 25 
2 13 104 
2 90 42 
2 5 4 
2 74 53 
2 18 107 
2 75 27 
2 69 57 
3 67 64 88 
2 73 44 
1 17 
1 54 
2 78 8 
1 111 
2 92 98 
1 21 
2 106 43 
2 16 14 
2 84 55 
1 113 
2 49 19 
1 23 
1 79 
2 82 26 
1 45 
1 110 
1 7 
2 12 105 
1 96 
2 86 30 
3 108 36 109 
2 62 2 
2 83 40 
2 31 102 
2 97 81 
3 32 99 91 
2 71 3 
2 24 87 
1 112 
2 20 101 
1 29 
3 65 100 34 
1 9 
1 15 
3 118 76 120 
2 50 72 
1 119 
2 117 10 
1 1 
1 89 
2 85 41 
1 66 
2 116 6 
2 80 38 
1 48 
3 60 52 93 
1 51 
3 22 33 11 
1 103 
1 46 
1 37 
3 39 35 58 
3 59 63 94 
1 47 
2 114 28 
1 61 
